c Sudoku solution
p cnf 729 0
162 0
221 0
277 0
316 0
322 0
337 0
354 0
469 0
578 0
591 0
617 0
651 0
668 0
676 0
689 0
695 0
741 0
361 0
796 0
832 0
642 0
884 0
899 0
915 0
933 0
811 0
431 0
634 0
623 0
536 0
952 0
971 0
181 0
286 0
292 0
214 0
113 0
964 0
724 0
544 0
866 0
926 0
827 0
949 0
379 0
385 0
393 0
174 0
198 0
238 0
348 0
259 0
428 0
525 0
412 0
519 0
582 0
718 0
739 0
129 0
135 0
858 0
772 0
473 0
487 0
494 0
147 0
156 0
446 0
455 0
875 0
783 0
757 0
765 0
843 0
245 0
263 0
553 0
567 0
988 0
997 0
